db/inputs/910217575279692961425494186371049013911.smt2
(set-logic QF_FP)
(declare-const x0 (_ FloatingPoint 11 53))
(declare-const x1 (_ FloatingPoint 11 53))
(declare-const x2 (_ FloatingPoint 11 53))
(declare-const x3 (_ FloatingPoint 11 53))
(declare-const x4 (_ FloatingPoint 11 53))
(declare-const x5 (_ FloatingPoint 11 53))
(declare-const x6 (_ FloatingPoint 11 53))
(declare-const x7 (_ FloatingPoint 11 53))
(declare-const x8 (_ FloatingPoint 11 53))
(assert (fp.gt (fp.neg x2) (fp.sub RNE x1 x8)))
(assert (fp.lt (fp.div RNE x1 x4) (fp.div RNE x4 x2)))
(assert (fp.leq (fp.neg x8) (fp.div RNE x6 x6)))
(assert (fp.gt (fp.neg x4) (fp.div RNE x1 x7)))
(assert (fp.leq (fp.div RNE x7 x8) (fp.add RNE x0 x4)))
(assert (fp.gt (fp.div RNE x8 x4) (fp.add RNE x7 x4)))
(assert (fp.geq (fp.add RNE x3 x6) (fp.sub RNE x5 x0)))
(assert (fp.lt (fp.div RNE x7 x1) (fp.neg x5)))
(assert (fp.leq (fp.add RNE x2 x7) (fp.sub RNE x4 x2)))
(assert (fp.eq (fp.mul RNE x3 x4) (fp.mul RNE x3 x5)))
(assert (fp.gt (fp.sub RNE x7 x4) (fp.mul RNE x3 x4)))
(assert (fp.eq (fp.add RNE x2 x6) (fp.div RNE x2 x3)))
(assert (fp.eq (fp.add RNE x1 x0) (fp.neg x6)))
(assert (fp.leq (fp.add RNE x0 x8) (fp.div RNE x4 x0)))
(assert (fp.gt (fp.div RNE x1 x0) (fp.sub RNE x2 x5)))
(assert (fp.lt (fp.div RNE x4 x6) (fp.mul RNE x7 x4)))
(check-sat)
