db/data/910217575279692961425494186371049013911.z3.out
-------------------
2500.105255386
